NAME : pr1002.264040.tour
COMMENT : Cost = 0_264040
COMMENT : Found by LKH [Keld Helsgaun] Thu Nov 16 16:26:24 2017
TYPE : TOUR
DIMENSION : 1004
TOUR_SECTION
1
2
1004
76
75
74
80
81
83
84
85
86
87
89
88
82
79
78
77
93
94
92
90
91
99
98
97
96
95
136
135
134
133
100
101
102
128
129
130
131
132
137
138
139
140
141
142
152
151
150
149
148
144
143
145
146
147
126
127
125
124
123
122
120
121
257
258
259
256
255
254
253
249
250
247
248
260
261
262
246
245
244
243
251
252
995
153
154
155
156
164
165
166
169
168
167
163
162
158
157
185
159
160
161
172
171
170
173
174
175
176
177
178
179
180
181
184
183
182
996
203
204
206
205
207
210
209
208
200
199
198
201
202
196
197
194
195
187
186
241
242
240
238
239
188
189
193
192
190
191
237
236
235
233
234
221
219
218
217
212
211
213
216
215
214
220
222
223
224
225
226
227
228
229
230
232
231
263
264
265
266
267
268
269
271
270
272
273
274
275
276
277
278
279
280
281
282
283
301
302
303
304
113
111
110
112
114
115
116
117
119
118
106
105
104
103
994
107
108
109
46
47
48
49
41
42
43
44
45
313
312
311
310
309
308
307
306
305
991
297
298
300
299
284
285
286
287
288
404
403
402
408
409
411
412
413
414
415
417
416
410
407
406
405
421
422
420
418
419
427
426
425
424
423
464
463
462
461
428
429
430
456
457
458
459
460
465
466
467
468
469
470
480
479
478
477
476
472
471
473
474
475
454
455
453
452
451
450
448
449
585
586
587
584
583
582
581
577
578
575
576
588
589
590
574
573
572
571
579
580
998
481
482
483
484
492
493
494
497
496
495
491
490
486
485
513
487
488
489
500
499
498
501
502
503
504
505
506
507
508
509
512
511
510
999
531
532
534
533
535
538
537
536
528
527
526
529
530
524
525
522
523
515
514
569
570
568
566
567
516
517
521
520
518
519
565
564
563
561
562
549
547
546
545
540
539
541
544
543
542
548
550
551
552
553
554
555
556
557
558
560
559
591
592
593
594
595
596
597
599
598
600
601
602
603
604
605
606
607
608
609
610
611
629
630
631
632
441
439
438
440
442
443
444
445
447
446
434
433
432
431
997
435
436
437
374
375
376
377
369
370
371
372
373
641
640
639
638
637
636
635
634
633
992
625
626
628
627
612
613
614
615
616
732
731
730
736
737
739
740
741
742
743
745
744
738
735
734
733
749
750
748
746
747
755
754
753
752
751
792
791
790
789
756
757
758
784
785
786
787
788
793
794
795
796
797
798
808
807
806
805
804
800
799
801
802
803
782
783
781
780
779
778
776
777
913
914
915
912
911
910
909
905
906
903
904
916
917
918
902
901
900
899
907
908
1001
809
810
811
812
820
821
822
825
824
823
819
818
814
813
841
815
816
817
828
827
826
829
830
831
832
833
834
835
836
837
840
839
838
1002
859
860
862
861
863
866
865
864
856
855
854
857
858
852
853
850
851
843
842
897
898
896
894
895
844
845
849
848
846
847
893
892
891
889
890
877
875
874
873
868
867
869
872
871
870
876
878
879
880
881
882
883
884
885
886
888
887
919
920
921
922
923
924
925
927
926
928
929
930
931
932
933
934
935
936
937
938
939
957
958
959
960
769
767
766
768
770
771
772
773
775
774
762
761
760
759
1000
763
764
765
702
703
704
705
697
698
699
700
701
969
968
967
966
965
964
963
962
961
993
953
954
956
955
940
941
942
943
944
945
946
947
948
952
951
949
950
977
978
979
976
973
974
975
980
982
981
972
971
970
987
986
985
983
984
990
989
988
684
683
685
686
687
682
676
675
677
674
671
670
669
672
673
678
679
681
680
688
689
690
691
692
693
694
695
696
706
707
709
708
710
713
711
712
723
722
721
715
714
716
717
718
720
719
668
667
666
665
664
663
726
725
724
728
729
727
620
619
618
617
624
623
621
622
649
650
651
648
645
646
647
652
654
653
644
643
642
659
658
657
655
656
662
661
660
356
355
357
358
359
354
348
347
349
346
343
342
341
344
345
350
351
353
352
360
361
362
363
364
365
366
367
368
378
379
381
380
382
385
383
384
395
394
393
387
386
388
389
390
392
391
340
339
338
337
336
335
398
397
396
400
401
399
292
291
290
289
296
295
293
294
321
322
323
320
317
318
319
324
326
325
316
315
314
331
330
329
327
328
334
333
332
28
27
29
30
31
26
20
19
21
18
15
14
13
16
17
22
23
25
24
32
33
34
35
36
37
38
39
40
50
51
53
52
54
57
55
56
67
66
65
59
58
60
61
62
64
63
12
11
10
9
8
7
70
69
68
72
73
71
1003
3
6
4
5
-1
EOF
